Route #1: 2 48 38 9 16 34 32 19 15 49 17
Route #2: 46 13 26 22 50 12 23
Route #3: 4 45 14 39 21 11 28 24 31 3
Route #4: 1 30 18 20 42 40
Route #5: 51 27 5 8 29 10 44
Route #6: 41 47 37 7 43 35 33
Route #7: 25 6 36
Cost 752